p tw 31 35
1 2
2 13
3 4
3 6
4 5
4 6
5 23
6 7
7 8
8 9
8 19
9 10
10 11
10 19
11 12
12 14
13 24
14 15
15 16
16 17
17 18
18 26
19 20
20 21
21 22
22 23
23 25
24 26
26 27
27 28
28 29
28 19
29 30
30 31
31 3
